NAME          BLANK   
ROWS
 N  OBJROW
 L  R0000000
COLUMNS
    C0000000  OBJROW     -547.         R0000000  45.         
    C0000001  OBJROW     -58.          R0000000  652.        
    C0000002  OBJROW     -117.         R0000000  320.        
    C0000003  OBJROW     -69.          R0000000  402.        
    C0000004  OBJROW     -507.         R0000000  759.        
    C0000005  OBJROW     -8.           R0000000  531.        
    C0000006  OBJROW     -712.         R0000000  130.        
    C0000007  OBJROW     -274.         R0000000  329.        
    C0000008  OBJROW     -665.         R0000000  618.        
    C0000009  OBJROW     -18.          R0000000  512.        
    C0000010  OBJROW     -285.         R0000000  881.        
    C0000011  OBJROW     -412.         R0000000  904.        
    C0000012  OBJROW     -567.         R0000000  304.        
RHS
    RHS       R0000000  14444.      
BOUNDS
 BV BOUND     C0000000  1.          
 BV BOUND     C0000001  1.          
 BV BOUND     C0000002  1.          
 BV BOUND     C0000003  1.          
 BV BOUND     C0000004  1.          
 BV BOUND     C0000005  1.          
 BV BOUND     C0000006  1.          
 BV BOUND     C0000007  1.          
 BV BOUND     C0000008  1.          
 BV BOUND     C0000009  1.          
 BV BOUND     C0000010  1.          
 BV BOUND     C0000011  1.          
 BV BOUND     C0000012  1.          
ENDATA
